SYSTEM = SrVO3
ENCUT = 400
ISPIN = 1
ICHARG = 5 ! 5 for fcsc calculations (communication with python)
NBANDS = 32

NELM = 1000 ! to prevent VASP from stopping too early (either because EDIFF is reached or 60 iterations were done)
NELMIN = 1000
NELMDL = -2 ! first perform 2 iterations. 1 is enough when starting from converged WAVECAR

!! Smearing procedure
ISMEAR = -5 ! -4 (-5) Tetrahedron (with Bloechl), 0 Gaussian, 1,... Methfessel-Paxton
SIGMA = 0.01

LMAXMIX = 4

!! write WAVECAR, CHGCAR
LWAVE = .FALSE.
LCHARG = .FALSE.

! sync vaspout.h5 so solid_dmft can read it while VASP holds it open (CSC)
LSYNCH5 = .TRUE.

LWANNIER90 = .TRUE.
LWRITE_MMN_AMN = .TRUE.
NUM_WANN = 3
WANNIER90_WIN = "
guiding_centres = T

begin projections
V:dxy,dyz,dxz
end projections

exclude_bands = 1-16, 22-32
dis_win_min = 4.1
dis_win_max = 6.9

write_hr = true
write_u_matrices = true
write_xyz = true
translate_home_cell = false

num_iter = 1000
conv_tol = 1E-9
conv_window = 10

dis_num_iter = 2000
dis_conv_tol = 1E-9
dis_conv_window = 10

bands_plot      =  true
begin kpoint_path
G  .0  .0  .0   X  .0  .5  .0
X  .0  .5  .0   M  .5  .5  .0
M  .5  .5  .0   G  .0  .0  .0
end kpoint_path
bands_num_points 40
"
